benchmark/results/graph__15-1000-0.10-02_5/graph__15-1000-0.10-02_5_QuintonOs_Benders_primal_sub.lp
\ This file has been generated by DOcplex
\ ENCODING=ISO-8859-1
\Problem name: Quinton Bounded Benders_primal_sub

Maximize
 obj: tau
Subject To
 c1: tau <= 0.000898472597
 c2: y_a0_proc_0 - tau = 0
 c3: y_a0_proc_0 <= 1
 c4: tau <= 0.001166861144
 c5: y_a1_proc_0 + y_a1_proc_1 - tau = 0
 c6: y_a1_proc_0 <= 0
 c7: y_a1_proc_1 <= 1
 c8: tau <= 0.001481481481
 c9: y_a2_proc_0 + y_a2_proc_1 - tau = 0
 c10: y_a2_proc_0 <= 1
 c11: y_a2_proc_1 <= 0
 c12: tau <= 0.001358695652
 c13: y_a3_proc_0 - tau = 0
 c14: y_a3_proc_0 <= 1
 c15: tau <= 0.000982318271
 c16: y_a4_proc_0 + y_a4_proc_1 - tau = 0
 c17: y_a4_proc_0 <= 0
 c18: y_a4_proc_1 <= 1
 c19: tau <= 0.005494505495
 c20: y_a5_proc_0 + y_a5_proc_1 - tau = 0
 c21: y_a5_proc_0 <= 1
 c22: y_a5_proc_1 <= 0
 c23: tau <= 0.001582278481
 c24: y_a6_proc_0 + y_a6_proc_1 - tau = 0
 c25: y_a6_proc_0 <= 1
 c26: y_a6_proc_1 <= 0
 c27: tau <= 0.000920810313
 c28: y_a7_proc_0 + y_a7_proc_1 - tau = 0
 c29: y_a7_proc_0 <= 1
 c30: y_a7_proc_1 <= 0
 c31: tau <= 0.001106194690
 c32: y_a8_proc_0 + y_a8_proc_1 - tau = 0
 c33: y_a8_proc_0 <= 0
 c34: y_a8_proc_1 <= 1
 c35: tau <= 0.001096491228
 c36: y_a9_proc_0 + y_a9_proc_1 - tau = 0
 c37: y_a9_proc_0 <= 0
 c38: y_a9_proc_1 <= 1
 c39: tau <= 0.001517450683
 c40: y_a10_proc_0 + y_a10_proc_1 - tau = 0
 c41: y_a10_proc_0 <= 1
 c42: y_a10_proc_1 <= 0
 c43: tau <= 0.000862812770
 c44: y_a11_proc_0 - tau = 0
 c45: y_a11_proc_0 <= 1
 c46: tau <= 0.001310615990
 c47: y_a12_proc_0 + y_a12_proc_1 - tau = 0
 c48: y_a12_proc_0 <= 1
 c49: y_a12_proc_1 <= 0
 c50: tau <= 0.001302083333
 c51: y_a13_proc_0 + y_a13_proc_1 - tau = 0
 c52: y_a13_proc_0 <= 0
 c53: y_a13_proc_1 <= 1
 c54: tau <= 0.000817661488
 c55: y_a14_proc_0 + y_a14_proc_1 - tau = 0
 c56: y_a14_proc_0 <= 0
 c57: y_a14_proc_1 <= 1
 c58: u_a0 - u_a1 - 856 y_a1_proc_0 - 857 y_a1_proc_1 >= 0
 c59: u_a0 - u_a2 - 675 y_a2_proc_0 - 1273 y_a2_proc_1 >= 0
 c60: u_a2 - u_a3 - 736 y_a3_proc_0 >= -1
 c61: u_a2 - u_a4 - 1041 y_a4_proc_0 - 1018 y_a4_proc_1 >= 0
 c62: u_a4 - u_a5 - 182 y_a5_proc_0 - 872 y_a5_proc_1 >= 0
 c63: u_a6 - u_a0 - 1113 y_a0_proc_0 >= 0
 c64: u_a3 - u_a7 - 1086 y_a7_proc_0 - 1028 y_a7_proc_1 >= 0
 c65: u_a7 - u_a8 - 1256 y_a8_proc_0 - 904 y_a8_proc_1 >= 0
 c66: u_a9 - u_a6 - 632 y_a6_proc_0 - 777 y_a6_proc_1 >= 0
 c67: u_a5 - u_a10 - 659 y_a10_proc_0 - 1062 y_a10_proc_1 >= 0
 c68: u_a1 - u_a11 - 1159 y_a11_proc_0 >= 0
 c69: u_a10 - u_a12 - 763 y_a12_proc_0 - 281 y_a12_proc_1 >= -1
 c70: u_a13 - u_a1 - 856 y_a1_proc_0 - 857 y_a1_proc_1 >= 0
 c71: u_a8 - u_a14 - 1157 y_a14_proc_0 - 1223 y_a14_proc_1 >= -1
 c72: u_a11 - u_a9 - 980 y_a9_proc_0 - 912 y_a9_proc_1 >= -1
 c73: u_a14 - u_a8 - 1256 y_a8_proc_0 - 904 y_a8_proc_1 >= 0
 c74: u_a14 - u_a6 - 632 y_a6_proc_0 - 777 y_a6_proc_1 >= 0
 c75: u_a1 - u_a9 - 980 y_a9_proc_0 - 912 y_a9_proc_1 >= -1
 c76: u_a13 - u_a5 - 182 y_a5_proc_0 - 872 y_a5_proc_1 >= 0
 c77: u_a11 - u_a2 - 675 y_a2_proc_0 - 1273 y_a2_proc_1 >= 0
 c78: u_a12 - u_a2 - 675 y_a2_proc_0 - 1273 y_a2_proc_1 >= 0
 c79: u_a12 - u_a3 - 736 y_a3_proc_0 >= 0
 c80: u_a10 - u_a14 - 1157 y_a14_proc_0 - 1223 y_a14_proc_1 >= -1
 c81: u_a10 - u_a7 - 1086 y_a7_proc_0 - 1028 y_a7_proc_1 >= -1
 c82: u_a1 - u_a0 - 1113 y_a0_proc_0 >= -1290
 c83: u_a0 - u_a1 - 856 y_a1_proc_0 >= -1257
 c84: u_a2 - u_a0 - 1113 y_a0_proc_0 >= -1
 c85: u_a0 - u_a2 - 675 y_a2_proc_0 >= 0
 c86: u_a3 - u_a0 - 1113 y_a0_proc_0 >= -1
 c87: u_a0 - u_a3 - 736 y_a3_proc_0 >= 0
 c88: u_a4 - u_a0 - 1113 y_a0_proc_0 >= -1290
 c89: u_a0 - u_a4 - 1041 y_a4_proc_0 >= -1257
 c90: u_a5 - u_a0 - 1113 y_a0_proc_0 >= -1
 c91: u_a0 - u_a5 - 182 y_a5_proc_0 >= 0
 c92: u_a6 - u_a0 - 1113 y_a0_proc_0 >= 0
 c93: u_a0 - u_a6 - 632 y_a6_proc_0 >= -1
 c94: u_a7 - u_a0 - 1113 y_a0_proc_0 >= -1
 c95: u_a0 - u_a7 - 1086 y_a7_proc_0 >= 0
 c96: u_a8 - u_a0 - 1113 y_a0_proc_0 >= -1290
 c97: u_a0 - u_a8 - 1256 y_a8_proc_0 >= -1257
 c98: u_a9 - u_a0 - 1113 y_a0_proc_0 >= -1290
 c99: u_a0 - u_a9 - 980 y_a9_proc_0 >= -1257
 c100: u_a10 - u_a0 - 1113 y_a0_proc_0 >= -1
 c101: u_a0 - u_a10 - 659 y_a10_proc_0 >= 0
 c102: u_a11 - u_a0 - 1113 y_a0_proc_0 >= -1
 c103: u_a0 - u_a11 - 1159 y_a11_proc_0 >= 0
 c104: u_a12 - u_a0 - 1113 y_a0_proc_0 >= 0
 c105: u_a0 - u_a12 - 763 y_a12_proc_0 >= -1
 c106: u_a13 - u_a0 - 1113 y_a0_proc_0 >= -1257
 c107: u_a0 - u_a13 - 897 y_a13_proc_0 >= -1290
 c108: u_a14 - u_a0 - 1113 y_a0_proc_0 >= -1290
 c109: u_a0 - u_a14 - 1157 y_a14_proc_0 >= -1257
 c110: u_a2 - u_a1 - 856 y_a1_proc_0 >= -1290
 c111: u_a2 - u_a1 - 857 y_a1_proc_1 >= -1290
 c112: u_a1 - u_a2 - 675 y_a2_proc_0 >= -1257
 c113: u_a1 - u_a2 - 1273 y_a2_proc_1 >= -1257
 c114: u_a3 - u_a1 - 856 y_a1_proc_0 >= -1290
 c115: u_a1 - u_a3 - 736 y_a3_proc_0 >= -1257
 c116: u_a4 - u_a1 - 856 y_a1_proc_0 >= -2547
 c117: u_a4 - u_a1 - 857 y_a1_proc_1 >= -1
 c118: u_a1 - u_a4 - 1041 y_a4_proc_0 >= -2546
 c119: u_a1 - u_a4 - 1018 y_a4_proc_1 >= 0
 c120: u_a5 - u_a1 - 856 y_a1_proc_0 >= -1290
 c121: u_a5 - u_a1 - 857 y_a1_proc_1 >= -1290
 c122: u_a1 - u_a5 - 182 y_a5_proc_0 >= -1257
 c123: u_a1 - u_a5 - 872 y_a5_proc_1 >= -1257
 c124: u_a6 - u_a1 - 856 y_a1_proc_0 >= -1290
 c125: u_a6 - u_a1 - 857 y_a1_proc_1 >= -1290
 c126: u_a1 - u_a6 - 632 y_a6_proc_0 >= -1257
 c127: u_a1 - u_a6 - 777 y_a6_proc_1 >= -1257
 c128: u_a7 - u_a1 - 856 y_a1_proc_0 >= -1257
 c129: u_a7 - u_a1 - 857 y_a1_proc_1 >= -1257
 c130: u_a1 - u_a7 - 1086 y_a7_proc_0 >= -1290
 c131: u_a1 - u_a7 - 1028 y_a7_proc_1 >= -1290
 c132: u_a8 - u_a1 - 856 y_a1_proc_0 >= -2547
 c133: u_a8 - u_a1 - 857 y_a1_proc_1 >= -1
 c134: u_a1 - u_a8 - 1256 y_a8_proc_0 >= -2546
 c135: u_a1 - u_a8 - 904 y_a8_proc_1 >= 0
 c136: u_a9 - u_a1 - 856 y_a1_proc_0 >= -2546
 c137: u_a9 - u_a1 - 857 y_a1_proc_1 >= 0
 c138: u_a1 - u_a9 - 980 y_a9_proc_0 >= -2547
 c139: u_a1 - u_a9 - 912 y_a9_proc_1 >= -1
 c140: u_a10 - u_a1 - 856 y_a1_proc_0 >= -1290
 c141: u_a10 - u_a1 - 857 y_a1_proc_1 >= -1290
 c142: u_a1 - u_a10 - 659 y_a10_proc_0 >= -1257
 c143: u_a1 - u_a10 - 1062 y_a10_proc_1 >= -1257
 c144: u_a11 - u_a1 - 856 y_a1_proc_0 >= -1290
 c145: u_a1 - u_a11 - 1159 y_a11_proc_0 >= -1257
 c146: u_a12 - u_a1 - 856 y_a1_proc_0 >= -1290
 c147: u_a12 - u_a1 - 857 y_a1_proc_1 >= -1290
 c148: u_a1 - u_a12 - 763 y_a12_proc_0 >= -1257
 c149: u_a1 - u_a12 - 281 y_a12_proc_1 >= -1257
 c150: u_a13 - u_a1 - 856 y_a1_proc_0 >= -2546
 c151: u_a13 - u_a1 - 857 y_a1_proc_1 >= 0
 c152: u_a1 - u_a13 - 897 y_a13_proc_0 >= -2547
 c153: u_a1 - u_a13 - 768 y_a13_proc_1 >= -1
 c154: u_a14 - u_a1 - 856 y_a1_proc_0 >= -2546
 c155: u_a14 - u_a1 - 857 y_a1_proc_1 >= 0
 c156: u_a1 - u_a14 - 1157 y_a14_proc_0 >= -2547
 c157: u_a1 - u_a14 - 1223 y_a14_proc_1 >= -1
 c158: u_a3 - u_a2 - 675 y_a2_proc_0 >= -1
 c159: u_a2 - u_a3 - 736 y_a3_proc_0 >= 0
 c160: u_a4 - u_a2 - 675 y_a2_proc_0 >= -1290
 c161: u_a4 - u_a2 - 1273 y_a2_proc_1 >= -1290
 c162: u_a2 - u_a4 - 1041 y_a4_proc_0 >= -1257
 c163: u_a2 - u_a4 - 1018 y_a4_proc_1 >= -1257
 c164: u_a5 - u_a2 - 675 y_a2_proc_0 >= -1
 c165: u_a5 - u_a2 - 1273 y_a2_proc_1 >= -2547
 c166: u_a2 - u_a5 - 182 y_a5_proc_0 >= 0
 c167: u_a2 - u_a5 - 872 y_a5_proc_1 >= -2546
 c168: u_a6 - u_a2 - 675 y_a2_proc_0 >= 0
 c169: u_a6 - u_a2 - 1273 y_a2_proc_1 >= -2546
 c170: u_a2 - u_a6 - 632 y_a6_proc_0 >= -1
 c171: u_a2 - u_a6 - 777 y_a6_proc_1 >= -2547
 c172: u_a7 - u_a2 - 675 y_a2_proc_0 >= -1
 c173: u_a7 - u_a2 - 1273 y_a2_proc_1 >= -2547
 c174: u_a2 - u_a7 - 1086 y_a7_proc_0 >= 0
 c175: u_a2 - u_a7 - 1028 y_a7_proc_1 >= -2546
 c176: u_a8 - u_a2 - 675 y_a2_proc_0 >= -1290
 c177: u_a8 - u_a2 - 1273 y_a2_proc_1 >= -1290
 c178: u_a2 - u_a8 - 1256 y_a8_proc_0 >= -1257
 c179: u_a2 - u_a8 - 904 y_a8_proc_1 >= -1257
 c180: u_a9 - u_a2 - 675 y_a2_proc_0 >= -1290
 c181: u_a9 - u_a2 - 1273 y_a2_proc_1 >= -1290
 c182: u_a2 - u_a9 - 980 y_a9_proc_0 >= -1257
 c183: u_a2 - u_a9 - 912 y_a9_proc_1 >= -1257
 c184: u_a10 - u_a2 - 675 y_a2_proc_0 >= -1
 c185: u_a10 - u_a2 - 1273 y_a2_proc_1 >= -2547
 c186: u_a2 - u_a10 - 659 y_a10_proc_0 >= 0
 c187: u_a2 - u_a10 - 1062 y_a10_proc_1 >= -2546
 c188: u_a11 - u_a2 - 675 y_a2_proc_0 >= 0
 c189: u_a2 - u_a11 - 1159 y_a11_proc_0 >= -1
 c190: u_a12 - u_a2 - 675 y_a2_proc_0 >= 0
 c191: u_a12 - u_a2 - 1273 y_a2_proc_1 >= -2546
 c192: u_a2 - u_a12 - 763 y_a12_proc_0 >= -1
 c193: u_a2 - u_a12 - 281 y_a12_proc_1 >= -2547
 c194: u_a13 - u_a2 - 675 y_a2_proc_0 >= -1290
 c195: u_a13 - u_a2 - 1273 y_a2_proc_1 >= -1290
 c196: u_a2 - u_a13 - 897 y_a13_proc_0 >= -1257
 c197: u_a2 - u_a13 - 768 y_a13_proc_1 >= -1257
 c198: u_a14 - u_a2 - 675 y_a2_proc_0 >= -1290
 c199: u_a14 - u_a2 - 1273 y_a2_proc_1 >= -1290
 c200: u_a2 - u_a14 - 1157 y_a14_proc_0 >= -1257
 c201: u_a2 - u_a14 - 1223 y_a14_proc_1 >= -1257
 c202: u_a4 - u_a3 - 736 y_a3_proc_0 >= -1290
 c203: u_a3 - u_a4 - 1041 y_a4_proc_0 >= -1257
 c204: u_a5 - u_a3 - 736 y_a3_proc_0 >= -1
 c205: u_a3 - u_a5 - 182 y_a5_proc_0 >= 0
 c206: u_a6 - u_a3 - 736 y_a3_proc_0 >= 0
 c207: u_a3 - u_a6 - 632 y_a6_proc_0 >= -1
 c208: u_a7 - u_a3 - 736 y_a3_proc_0 >= -1
 c209: u_a3 - u_a7 - 1086 y_a7_proc_0 >= 0
 c210: u_a8 - u_a3 - 736 y_a3_proc_0 >= -1257
 c211: u_a3 - u_a8 - 1256 y_a8_proc_0 >= -1290
 c212: u_a9 - u_a3 - 736 y_a3_proc_0 >= -1257
 c213: u_a3 - u_a9 - 980 y_a9_proc_0 >= -1290
 c214: u_a10 - u_a3 - 736 y_a3_proc_0 >= -1
 c215: u_a3 - u_a10 - 659 y_a10_proc_0 >= 0
 c216: u_a11 - u_a3 - 736 y_a3_proc_0 >= 0
 c217: u_a3 - u_a11 - 1159 y_a11_proc_0 >= -1
 c218: u_a12 - u_a3 - 736 y_a3_proc_0 >= 0
 c219: u_a3 - u_a12 - 763 y_a12_proc_0 >= -1
 c220: u_a13 - u_a3 - 736 y_a3_proc_0 >= -1290
 c221: u_a3 - u_a13 - 897 y_a13_proc_0 >= -1257
 c222: u_a14 - u_a3 - 736 y_a3_proc_0 >= -1290
 c223: u_a3 - u_a14 - 1157 y_a14_proc_0 >= -1257
 c224: u_a5 - u_a4 - 1041 y_a4_proc_0 >= -1290
 c225: u_a5 - u_a4 - 1018 y_a4_proc_1 >= -1290
 c226: u_a4 - u_a5 - 182 y_a5_proc_0 >= -1257
 c227: u_a4 - u_a5 - 872 y_a5_proc_1 >= -1257
 c228: u_a6 - u_a4 - 1041 y_a4_proc_0 >= -1257
 c229: u_a6 - u_a4 - 1018 y_a4_proc_1 >= -1257
 c230: u_a4 - u_a6 - 632 y_a6_proc_0 >= -1290
 c231: u_a4 - u_a6 - 777 y_a6_proc_1 >= -1290
 c232: u_a7 - u_a4 - 1041 y_a4_proc_0 >= -1257
 c233: u_a7 - u_a4 - 1018 y_a4_proc_1 >= -1257
 c234: u_a4 - u_a7 - 1086 y_a7_proc_0 >= -1290
 c235: u_a4 - u_a7 - 1028 y_a7_proc_1 >= -1290
 c236: u_a8 - u_a4 - 1041 y_a4_proc_0 >= -2547
 c237: u_a8 - u_a4 - 1018 y_a4_proc_1 >= -1
 c238: u_a4 - u_a8 - 1256 y_a8_proc_0 >= -2546
 c239: u_a4 - u_a8 - 904 y_a8_proc_1 >= 0
 c240: u_a9 - u_a4 - 1041 y_a4_proc_0 >= -2545
 c241: u_a9 - u_a4 - 1018 y_a4_proc_1 >= 1
 c242: u_a4 - u_a9 - 980 y_a9_proc_0 >= -2548
 c243: u_a4 - u_a9 - 912 y_a9_proc_1 >= -2
 c244: u_a10 - u_a4 - 1041 y_a4_proc_0 >= -1290
 c245: u_a10 - u_a4 - 1018 y_a4_proc_1 >= -1290
 c246: u_a4 - u_a10 - 659 y_a10_proc_0 >= -1257
 c247: u_a4 - u_a10 - 1062 y_a10_proc_1 >= -1257
 c248: u_a11 - u_a4 - 1041 y_a4_proc_0 >= -1290
 c249: u_a4 - u_a11 - 1159 y_a11_proc_0 >= -1257
 c250: u_a12 - u_a4 - 1041 y_a4_proc_0 >= -1290
 c251: u_a12 - u_a4 - 1018 y_a4_proc_1 >= -1290
 c252: u_a4 - u_a12 - 763 y_a12_proc_0 >= -1257
 c253: u_a4 - u_a12 - 281 y_a12_proc_1 >= -1257
 c254: u_a13 - u_a4 - 1041 y_a4_proc_0 >= -2546
 c255: u_a13 - u_a4 - 1018 y_a4_proc_1 >= 0
 c256: u_a4 - u_a13 - 897 y_a13_proc_0 >= -2547
 c257: u_a4 - u_a13 - 768 y_a13_proc_1 >= -1
 c258: u_a14 - u_a4 - 1041 y_a4_proc_0 >= -2546
 c259: u_a14 - u_a4 - 1018 y_a4_proc_1 >= 0
 c260: u_a4 - u_a14 - 1157 y_a14_proc_0 >= -2547
 c261: u_a4 - u_a14 - 1223 y_a14_proc_1 >= -1
 c262: u_a6 - u_a5 - 182 y_a5_proc_0 >= 0
 c263: u_a6 - u_a5 - 872 y_a5_proc_1 >= -2546
 c264: u_a5 - u_a6 - 632 y_a6_proc_0 >= -1
 c265: u_a5 - u_a6 - 777 y_a6_proc_1 >= -2547
 c266: u_a7 - u_a5 - 182 y_a5_proc_0 >= 0
 c267: u_a7 - u_a5 - 872 y_a5_proc_1 >= -2546
 c268: u_a5 - u_a7 - 1086 y_a7_proc_0 >= -1
 c269: u_a5 - u_a7 - 1028 y_a7_proc_1 >= -2547
 c270: u_a8 - u_a5 - 182 y_a5_proc_0 >= -1290
 c271: u_a8 - u_a5 - 872 y_a5_proc_1 >= -1290
 c272: u_a5 - u_a8 - 1256 y_a8_proc_0 >= -1257
 c273: u_a5 - u_a8 - 904 y_a8_proc_1 >= -1257
 c274: u_a9 - u_a5 - 182 y_a5_proc_0 >= -1257
 c275: u_a9 - u_a5 - 872 y_a5_proc_1 >= -1257
 c276: u_a5 - u_a9 - 980 y_a9_proc_0 >= -1290
 c277: u_a5 - u_a9 - 912 y_a9_proc_1 >= -1290
 c278: u_a10 - u_a5 - 182 y_a5_proc_0 >= -1
 c279: u_a10 - u_a5 - 872 y_a5_proc_1 >= -2547
 c280: u_a5 - u_a10 - 659 y_a10_proc_0 >= 0
 c281: u_a5 - u_a10 - 1062 y_a10_proc_1 >= -2546
 c282: u_a11 - u_a5 - 182 y_a5_proc_0 >= 0
 c283: u_a5 - u_a11 - 1159 y_a11_proc_0 >= -1
 c284: u_a12 - u_a5 - 182 y_a5_proc_0 >= 0
 c285: u_a12 - u_a5 - 872 y_a5_proc_1 >= -2546
 c286: u_a5 - u_a12 - 763 y_a12_proc_0 >= -1
 c287: u_a5 - u_a12 - 281 y_a12_proc_1 >= -2547
 c288: u_a13 - u_a5 - 182 y_a5_proc_0 >= -1257
 c289: u_a13 - u_a5 - 872 y_a5_proc_1 >= -1257
 c290: u_a5 - u_a13 - 897 y_a13_proc_0 >= -1290
 c291: u_a5 - u_a13 - 768 y_a13_proc_1 >= -1290
 c292: u_a14 - u_a5 - 182 y_a5_proc_0 >= -1290
 c293: u_a14 - u_a5 - 872 y_a5_proc_1 >= -1290
 c294: u_a5 - u_a14 - 1157 y_a14_proc_0 >= -1257
 c295: u_a5 - u_a14 - 1223 y_a14_proc_1 >= -1257
 c296: u_a7 - u_a6 - 632 y_a6_proc_0 >= -1
 c297: u_a7 - u_a6 - 777 y_a6_proc_1 >= -2547
 c298: u_a6 - u_a7 - 1086 y_a7_proc_0 >= 0
 c299: u_a6 - u_a7 - 1028 y_a7_proc_1 >= -2546
 c300: u_a8 - u_a6 - 632 y_a6_proc_0 >= -1257
 c301: u_a8 - u_a6 - 777 y_a6_proc_1 >= -1257
 c302: u_a6 - u_a8 - 1256 y_a8_proc_0 >= -1290
 c303: u_a6 - u_a8 - 904 y_a8_proc_1 >= -1290
 c304: u_a9 - u_a6 - 632 y_a6_proc_0 >= -1290
 c305: u_a9 - u_a6 - 777 y_a6_proc_1 >= -1290
 c306: u_a6 - u_a9 - 980 y_a9_proc_0 >= -1257
 c307: u_a6 - u_a9 - 912 y_a9_proc_1 >= -1257
 c308: u_a10 - u_a6 - 632 y_a6_proc_0 >= -1
 c309: u_a10 - u_a6 - 777 y_a6_proc_1 >= -2547
 c310: u_a6 - u_a10 - 659 y_a10_proc_0 >= 0
 c311: u_a6 - u_a10 - 1062 y_a10_proc_1 >= -2546
 c312: u_a11 - u_a6 - 632 y_a6_proc_0 >= -1
 c313: u_a6 - u_a11 - 1159 y_a11_proc_0 >= 0
 c314: u_a12 - u_a6 - 632 y_a6_proc_0 >= 0
 c315: u_a12 - u_a6 - 777 y_a6_proc_1 >= -2546
 c316: u_a6 - u_a12 - 763 y_a12_proc_0 >= -1
 c317: u_a6 - u_a12 - 281 y_a12_proc_1 >= -2547
 c318: u_a13 - u_a6 - 632 y_a6_proc_0 >= -1257
 c319: u_a13 - u_a6 - 777 y_a6_proc_1 >= -1257
 c320: u_a6 - u_a13 - 897 y_a13_proc_0 >= -1290
 c321: u_a6 - u_a13 - 768 y_a13_proc_1 >= -1290
 c322: u_a14 - u_a6 - 632 y_a6_proc_0 >= -1290
 c323: u_a14 - u_a6 - 777 y_a6_proc_1 >= -1290
 c324: u_a6 - u_a14 - 1157 y_a14_proc_0 >= -1257
 c325: u_a6 - u_a14 - 1223 y_a14_proc_1 >= -1257
 c326: u_a8 - u_a7 - 1086 y_a7_proc_0 >= -1257
 c327: u_a8 - u_a7 - 1028 y_a7_proc_1 >= -1257
 c328: u_a7 - u_a8 - 1256 y_a8_proc_0 >= -1290
 c329: u_a7 - u_a8 - 904 y_a8_proc_1 >= -1290
 c330: u_a9 - u_a7 - 1086 y_a7_proc_0 >= -1290
 c331: u_a9 - u_a7 - 1028 y_a7_proc_1 >= -1290
 c332: u_a7 - u_a9 - 980 y_a9_proc_0 >= -1257
 c333: u_a7 - u_a9 - 912 y_a9_proc_1 >= -1257
 c334: u_a10 - u_a7 - 1086 y_a7_proc_0 >= -1
 c335: u_a10 - u_a7 - 1028 y_a7_proc_1 >= -2547
 c336: u_a7 - u_a10 - 659 y_a10_proc_0 >= 0
 c337: u_a7 - u_a10 - 1062 y_a10_proc_1 >= -2546
 c338: u_a11 - u_a7 - 1086 y_a7_proc_0 >= 0
 c339: u_a7 - u_a11 - 1159 y_a11_proc_0 >= -1
 c340: u_a12 - u_a7 - 1086 y_a7_proc_0 >= 0
 c341: u_a12 - u_a7 - 1028 y_a7_proc_1 >= -2546
 c342: u_a7 - u_a12 - 763 y_a12_proc_0 >= -1
 c343: u_a7 - u_a12 - 281 y_a12_proc_1 >= -2547
 c344: u_a13 - u_a7 - 1086 y_a7_proc_0 >= -1257
 c345: u_a13 - u_a7 - 1028 y_a7_proc_1 >= -1257
 c346: u_a7 - u_a13 - 897 y_a13_proc_0 >= -1290
 c347: u_a7 - u_a13 - 768 y_a13_proc_1 >= -1290
 c348: u_a14 - u_a7 - 1086 y_a7_proc_0 >= -1290
 c349: u_a14 - u_a7 - 1028 y_a7_proc_1 >= -1290
 c350: u_a7 - u_a14 - 1157 y_a14_proc_0 >= -1257
 c351: u_a7 - u_a14 - 1223 y_a14_proc_1 >= -1257
 c352: u_a9 - u_a8 - 1256 y_a8_proc_0 >= -2545
 c353: u_a9 - u_a8 - 904 y_a8_proc_1 >= 1
 c354: u_a8 - u_a9 - 980 y_a9_proc_0 >= -2548
 c355: u_a8 - u_a9 - 912 y_a9_proc_1 >= -2
 c356: u_a10 - u_a8 - 1256 y_a8_proc_0 >= -1257
 c357: u_a10 - u_a8 - 904 y_a8_proc_1 >= -1257
 c358: u_a8 - u_a10 - 659 y_a10_proc_0 >= -1290
 c359: u_a8 - u_a10 - 1062 y_a10_proc_1 >= -1290
 c360: u_a11 - u_a8 - 1256 y_a8_proc_0 >= -1290
 c361: u_a8 - u_a11 - 1159 y_a11_proc_0 >= -1257
 c362: u_a12 - u_a8 - 1256 y_a8_proc_0 >= -1290
 c363: u_a12 - u_a8 - 904 y_a8_proc_1 >= -1290
 c364: u_a8 - u_a12 - 763 y_a12_proc_0 >= -1257
 c365: u_a8 - u_a12 - 281 y_a12_proc_1 >= -1257
 c366: u_a13 - u_a8 - 1256 y_a8_proc_0 >= -2546
 c367: u_a13 - u_a8 - 904 y_a8_proc_1 >= 0
 c368: u_a8 - u_a13 - 897 y_a13_proc_0 >= -2547
 c369: u_a8 - u_a13 - 768 y_a13_proc_1 >= -1
 c370: u_a14 - u_a8 - 1256 y_a8_proc_0 >= -2546
 c371: u_a14 - u_a8 - 904 y_a8_proc_1 >= 0
 c372: u_a8 - u_a14 - 1157 y_a14_proc_0 >= -2547
 c373: u_a8 - u_a14 - 1223 y_a14_proc_1 >= -1
 c374: u_a10 - u_a9 - 980 y_a9_proc_0 >= -1290
 c375: u_a10 - u_a9 - 912 y_a9_proc_1 >= -1290
 c376: u_a9 - u_a10 - 659 y_a10_proc_0 >= -1257
 c377: u_a9 - u_a10 - 1062 y_a10_proc_1 >= -1257
 c378: u_a11 - u_a9 - 980 y_a9_proc_0 >= -1290
 c379: u_a9 - u_a11 - 1159 y_a11_proc_0 >= -1257
 c380: u_a12 - u_a9 - 980 y_a9_proc_0 >= -1257
 c381: u_a12 - u_a9 - 912 y_a9_proc_1 >= -1257
 c382: u_a9 - u_a12 - 763 y_a12_proc_0 >= -1290
 c383: u_a9 - u_a12 - 281 y_a12_proc_1 >= -1290
 c384: u_a13 - u_a9 - 980 y_a9_proc_0 >= -2547
 c385: u_a13 - u_a9 - 912 y_a9_proc_1 >= -1
 c386: u_a9 - u_a13 - 897 y_a13_proc_0 >= -2546
 c387: u_a9 - u_a13 - 768 y_a13_proc_1 >= 0
 c388: u_a14 - u_a9 - 980 y_a9_proc_0 >= -2547
 c389: u_a14 - u_a9 - 912 y_a9_proc_1 >= -1
 c390: u_a9 - u_a14 - 1157 y_a14_proc_0 >= -2546
 c391: u_a9 - u_a14 - 1223 y_a14_proc_1 >= 0
 c392: u_a11 - u_a10 - 659 y_a10_proc_0 >= 0
 c393: u_a10 - u_a11 - 1159 y_a11_proc_0 >= -1
 c394: u_a12 - u_a10 - 659 y_a10_proc_0 >= 0
 c395: u_a12 - u_a10 - 1062 y_a10_proc_1 >= -2546
 c396: u_a10 - u_a12 - 763 y_a12_proc_0 >= -1
 c397: u_a10 - u_a12 - 281 y_a12_proc_1 >= -2547
 c398: u_a13 - u_a10 - 659 y_a10_proc_0 >= -1290
 c399: u_a13 - u_a10 - 1062 y_a10_proc_1 >= -1290
 c400: u_a10 - u_a13 - 897 y_a13_proc_0 >= -1257
 c401: u_a10 - u_a13 - 768 y_a13_proc_1 >= -1257
 c402: u_a14 - u_a10 - 659 y_a10_proc_0 >= -1290
 c403: u_a14 - u_a10 - 1062 y_a10_proc_1 >= -1290
 c404: u_a10 - u_a14 - 1157 y_a14_proc_0 >= -1257
 c405: u_a10 - u_a14 - 1223 y_a14_proc_1 >= -1257
 c406: u_a12 - u_a11 - 1159 y_a11_proc_0 >= 0
 c407: u_a11 - u_a12 - 763 y_a12_proc_0 >= -1
 c408: u_a13 - u_a11 - 1159 y_a11_proc_0 >= -1290
 c409: u_a11 - u_a13 - 897 y_a13_proc_0 >= -1257
 c410: u_a14 - u_a11 - 1159 y_a11_proc_0 >= -1290
 c411: u_a11 - u_a14 - 1157 y_a14_proc_0 >= -1257
 c412: u_a13 - u_a12 - 763 y_a12_proc_0 >= -1257
 c413: u_a13 - u_a12 - 281 y_a12_proc_1 >= -1257
 c414: u_a12 - u_a13 - 897 y_a13_proc_0 >= -1290
 c415: u_a12 - u_a13 - 768 y_a13_proc_1 >= -1290
 c416: u_a14 - u_a12 - 763 y_a12_proc_0 >= -1290
 c417: u_a14 - u_a12 - 281 y_a12_proc_1 >= -1290
 c418: u_a12 - u_a14 - 1157 y_a14_proc_0 >= -1257
 c419: u_a12 - u_a14 - 1223 y_a14_proc_1 >= -1257
 c420: u_a14 - u_a13 - 897 y_a13_proc_0 >= -2546
 c421: u_a14 - u_a13 - 768 y_a13_proc_1 >= 0
 c422: u_a13 - u_a14 - 1157 y_a14_proc_0 >= -2547
 c423: u_a13 - u_a14 - 1223 y_a14_proc_1 >= -1

Bounds
End
